\ This file has been generated by DOcplex
\ ENCODING=ISO-8859-1
\Problem name: Sugar

Maximize
 obj: x_0_0 + x_0_1 + x_0_2 + x_0_3 + x_0_4 + x_0_5 + x_0_6 + x_0_7 + x_0_8
      + x_0_9 + x_0_10 + x_0_11 + x_0_12 + x_0_13 + x_0_14 + x_0_15 + x_0_16
      + x_0_17 + x_1_0 + x_1_1 + x_1_2 + x_1_3 + x_1_4 + x_1_5 + x_1_6 + x_1_7
      + x_1_8 + x_1_9 + x_1_10 + x_1_11 + x_1_12 + x_1_13 + x_1_14 + x_1_15
      + x_1_16 + x_1_17 + x_2_0 + x_2_1 + x_2_2 + x_2_3 + x_2_4 + x_2_5 + x_2_6
      + x_2_7 + x_2_8 + x_2_9 + x_2_10 + x_2_11 + x_2_12 + x_2_13 + x_2_14
      + x_2_15 + x_2_16 + x_2_17 + x_3_0 + x_3_1 + x_3_2 + x_3_3 + x_3_4 + x_3_5
      + x_3_6 + x_3_7 + x_3_8 + x_3_9 + x_3_10 + x_3_11 + x_3_12 + x_3_13
      + x_3_14 + x_3_15 + x_3_16 + x_3_17 + x_4_0 + x_4_1 + x_4_2 + x_4_3
      + x_4_4 + x_4_5 + x_4_6 + x_4_7 + x_4_8 + x_4_9 + x_4_10 + x_4_11 + x_4_12
      + x_4_13 + x_4_14 + x_4_15 + x_4_16 + x_4_17 + x_5_0 + x_5_1 + x_5_2
      + x_5_3 + x_5_4 + x_5_5 + x_5_6 + x_5_7 + x_5_8 + x_5_9 + x_5_10 + x_5_11
      + x_5_12 + x_5_13 + x_5_14 + x_5_15 + x_5_16 + x_5_17 + x_6_0 + x_6_1
      + x_6_2 + x_6_3 + x_6_4 + x_6_5 + x_6_6 + x_6_7 + x_6_8 + x_6_9 + x_6_10
      + x_6_11 + x_6_12 + x_6_13 + x_6_14 + x_6_15 + x_6_16 + x_6_17 + x_7_0
      + x_7_1 + x_7_2 + x_7_3 + x_7_4 + x_7_5 + x_7_6 + x_7_7 + x_7_8 + x_7_9
      + x_7_10 + x_7_11 + x_7_12 + x_7_13 + x_7_14 + x_7_15 + x_7_16 + x_7_17
      + x_8_0 + x_8_1 + x_8_2 + x_8_3 + x_8_4 + x_8_5 + x_8_6 + x_8_7 + x_8_8
      + x_8_9 + x_8_10 + x_8_11 + x_8_12 + x_8_13 + x_8_14 + x_8_15 + x_8_16
      + x_8_17 + x_9_0 + x_9_1 + x_9_2 + x_9_3 + x_9_4 + x_9_5 + x_9_6 + x_9_7
      + x_9_8 + x_9_9 + x_9_10 + x_9_11 + x_9_12 + x_9_13 + x_9_14 + x_9_15
      + x_9_16 + x_9_17 + x_10_0 + x_10_1 + x_10_2 + x_10_3 + x_10_4 + x_10_5
      + x_10_6 + x_10_7 + x_10_8 + x_10_9 + x_10_10 + x_10_11 + x_10_12
      + x_10_13 + x_10_14 + x_10_15 + x_10_16 + x_10_17 + x_11_0 + x_11_1
      + x_11_2 + x_11_3 + x_11_4 + x_11_5 + x_11_6 + x_11_7 + x_11_8 + x_11_9
      + x_11_10 + x_11_11 + x_11_12 + x_11_13 + x_11_14 + x_11_15 + x_11_16
      + x_11_17 + x_12_0 + x_12_1 + x_12_2 + x_12_3 + x_12_4 + x_12_5 + x_12_6
      + x_12_7 + x_12_8 + x_12_9 + x_12_10 + x_12_11 + x_12_12 + x_12_13
      + x_12_14 + x_12_15 + x_12_16 + x_12_17 + x_13_0 + x_13_1 + x_13_2
      + x_13_3 + x_13_4 + x_13_5 + x_13_6 + x_13_7 + x_13_8 + x_13_9 + x_13_10
      + x_13_11 + x_13_12 + x_13_13 + x_13_14 + x_13_15 + x_13_16 + x_13_17
Subject To
 c1: x_0_0 + x_0_1 + x_1_0 <= 2
 c2: x_0_1 + x_0_0 + x_0_2 + x_1_1 <= 3
 c3: x_0_2 + x_0_1 + x_0_3 + x_1_2 <= 3
 c4: x_0_3 + x_0_2 + x_0_4 + x_1_3 <= 3
 c5: x_0_4 + x_0_3 + x_0_5 + x_1_4 <= 3
 c6: x_0_5 + x_0_4 + x_0_6 + x_1_5 <= 3
 c7: x_0_6 + x_0_5 + x_0_7 + x_1_6 <= 3
 c8: x_0_7 + x_0_6 + x_0_8 + x_1_7 <= 3
 c9: x_0_8 + x_0_7 + x_0_9 + x_1_8 <= 3
 c10: x_0_9 + x_0_8 + x_0_10 + x_1_9 <= 3
 c11: x_0_10 + x_0_9 + x_0_11 + x_1_10 <= 3
 c12: x_0_11 + x_0_10 + x_0_12 + x_1_11 <= 3
 c13: x_0_12 + x_0_11 + x_0_13 + x_1_12 <= 3
 c14: x_0_13 + x_0_12 + x_0_14 + x_1_13 <= 3
 c15: x_0_14 + x_0_13 + x_0_15 + x_1_14 <= 3
 c16: x_0_15 + x_0_14 + x_0_16 + x_1_15 <= 3
 c17: x_0_16 + x_0_15 + x_0_17 + x_1_16 <= 3
 c18: x_0_17 + x_0_16 + x_1_17 <= 2
 c19: x_1_0 + x_0_0 + x_1_1 + x_2_0 <= 3
 c20: x_1_1 + x_0_1 + x_1_0 + x_1_2 + x_2_1 <= 4
 c21: x_1_2 + x_0_2 + x_1_1 + x_1_3 + x_2_2 <= 4
 c22: x_1_3 + x_0_3 + x_1_2 + x_1_4 + x_2_3 <= 4
 c23: x_1_4 + x_0_4 + x_1_3 + x_1_5 + x_2_4 <= 4
 c24: x_1_5 + x_0_5 + x_1_4 + x_1_6 + x_2_5 <= 4
 c25: x_1_6 + x_0_6 + x_1_5 + x_1_7 + x_2_6 <= 4
 c26: x_1_7 + x_0_7 + x_1_6 + x_1_8 + x_2_7 <= 4
 c27: x_1_8 + x_0_8 + x_1_7 + x_1_9 + x_2_8 <= 4
 c28: x_1_9 + x_0_9 + x_1_8 + x_1_10 + x_2_9 <= 4
 c29: x_1_10 + x_0_10 + x_1_9 + x_1_11 + x_2_10 <= 4
 c30: x_1_11 + x_0_11 + x_1_10 + x_1_12 + x_2_11 <= 4
 c31: x_1_12 + x_0_12 + x_1_11 + x_1_13 + x_2_12 <= 4
 c32: x_1_13 + x_0_13 + x_1_12 + x_1_14 + x_2_13 <= 4
 c33: x_1_14 + x_0_14 + x_1_13 + x_1_15 + x_2_14 <= 4
 c34: x_1_15 + x_0_15 + x_1_14 + x_1_16 + x_2_15 <= 4
 c35: x_1_16 + x_0_16 + x_1_15 + x_1_17 + x_2_16 <= 4
 c36: x_1_17 + x_0_17 + x_1_16 + x_2_17 <= 3
 c37: x_2_0 + x_1_0 + x_2_1 + x_3_0 <= 3
 c38: x_2_1 + x_1_1 + x_2_0 + x_2_2 + x_3_1 <= 4
 c39: x_2_2 + x_1_2 + x_2_1 + x_2_3 + x_3_2 <= 4
 c40: x_2_3 + x_1_3 + x_2_2 + x_2_4 + x_3_3 <= 4
 c41: x_2_4 + x_1_4 + x_2_3 + x_2_5 + x_3_4 <= 4
 c42: x_2_5 + x_1_5 + x_2_4 + x_2_6 + x_3_5 <= 4
 c43: x_2_6 + x_1_6 + x_2_5 + x_2_7 + x_3_6 <= 4
 c44: x_2_7 + x_1_7 + x_2_6 + x_2_8 + x_3_7 <= 4
 c45: x_2_8 + x_1_8 + x_2_7 + x_2_9 + x_3_8 <= 4
 c46: x_2_9 + x_1_9 + x_2_8 + x_2_10 + x_3_9 <= 4
 c47: x_2_10 + x_1_10 + x_2_9 + x_2_11 + x_3_10 <= 4
 c48: x_2_11 + x_1_11 + x_2_10 + x_2_12 + x_3_11 <= 4
 c49: x_2_12 + x_1_12 + x_2_11 + x_2_13 + x_3_12 <= 4
 c50: x_2_13 + x_1_13 + x_2_12 + x_2_14 + x_3_13 <= 4
 c51: x_2_14 + x_1_14 + x_2_13 + x_2_15 + x_3_14 <= 4
 c52: x_2_15 + x_1_15 + x_2_14 + x_2_16 + x_3_15 <= 4
 c53: x_2_16 + x_1_16 + x_2_15 + x_2_17 + x_3_16 <= 4
 c54: x_2_17 + x_1_17 + x_2_16 + x_3_17 <= 3
 c55: x_3_0 + x_2_0 + x_3_1 + x_4_0 <= 3
 c56: x_3_1 + x_2_1 + x_3_0 + x_3_2 + x_4_1 <= 4
 c57: x_3_2 + x_2_2 + x_3_1 + x_3_3 + x_4_2 <= 4
 c58: x_3_3 + x_2_3 + x_3_2 + x_3_4 + x_4_3 <= 4
 c59: x_3_4 + x_2_4 + x_3_3 + x_3_5 + x_4_4 <= 4
 c60: x_3_5 + x_2_5 + x_3_4 + x_3_6 + x_4_5 <= 4
 c61: x_3_6 + x_2_6 + x_3_5 + x_3_7 + x_4_6 <= 4
 c62: x_3_7 + x_2_7 + x_3_6 + x_3_8 + x_4_7 <= 4
 c63: x_3_8 + x_2_8 + x_3_7 + x_3_9 + x_4_8 <= 4
 c64: x_3_9 + x_2_9 + x_3_8 + x_3_10 + x_4_9 <= 4
 c65: x_3_10 + x_2_10 + x_3_9 + x_3_11 + x_4_10 <= 4
 c66: x_3_11 + x_2_11 + x_3_10 + x_3_12 + x_4_11 <= 4
 c67: x_3_12 + x_2_12 + x_3_11 + x_3_13 + x_4_12 <= 4
 c68: x_3_13 + x_2_13 + x_3_12 + x_3_14 + x_4_13 <= 4
 c69: x_3_14 + x_2_14 + x_3_13 + x_3_15 + x_4_14 <= 4
 c70: x_3_15 + x_2_15 + x_3_14 + x_3_16 + x_4_15 <= 4
 c71: x_3_16 + x_2_16 + x_3_15 + x_3_17 + x_4_16 <= 4
 c72: x_3_17 + x_2_17 + x_3_16 + x_4_17 <= 3
 c73: x_4_0 + x_3_0 + x_4_1 + x_5_0 <= 3
 c74: x_4_1 + x_3_1 + x_4_0 + x_4_2 + x_5_1 <= 4
 c75: x_4_2 + x_3_2 + x_4_1 + x_4_3 + x_5_2 <= 4
 c76: x_4_3 + x_3_3 + x_4_2 + x_4_4 + x_5_3 <= 4
 c77: x_4_4 + x_3_4 + x_4_3 + x_4_5 + x_5_4 <= 4
 c78: x_4_5 + x_3_5 + x_4_4 + x_4_6 + x_5_5 <= 4
 c79: x_4_6 + x_3_6 + x_4_5 + x_4_7 + x_5_6 <= 4
 c80: x_4_7 + x_3_7 + x_4_6 + x_4_8 + x_5_7 <= 4
 c81: x_4_8 + x_3_8 + x_4_7 + x_4_9 + x_5_8 <= 4
 c82: x_4_9 + x_3_9 + x_4_8 + x_4_10 + x_5_9 <= 4
 c83: x_4_10 + x_3_10 + x_4_9 + x_4_11 + x_5_10 <= 4
 c84: x_4_11 + x_3_11 + x_4_10 + x_4_12 + x_5_11 <= 4
 c85: x_4_12 + x_3_12 + x_4_11 + x_4_13 + x_5_12 <= 4
 c86: x_4_13 + x_3_13 + x_4_12 + x_4_14 + x_5_13 <= 4
 c87: x_4_14 + x_3_14 + x_4_13 + x_4_15 + x_5_14 <= 4
 c88: x_4_15 + x_3_15 + x_4_14 + x_4_16 + x_5_15 <= 4
 c89: x_4_16 + x_3_16 + x_4_15 + x_4_17 + x_5_16 <= 4
 c90: x_4_17 + x_3_17 + x_4_16 + x_5_17 <= 3
 c91: x_5_0 + x_4_0 + x_5_1 + x_6_0 <= 3
 c92: x_5_1 + x_4_1 + x_5_0 + x_5_2 + x_6_1 <= 4
 c93: x_5_2 + x_4_2 + x_5_1 + x_5_3 + x_6_2 <= 4
 c94: x_5_3 + x_4_3 + x_5_2 + x_5_4 + x_6_3 <= 4
 c95: x_5_4 + x_4_4 + x_5_3 + x_5_5 + x_6_4 <= 4
 c96: x_5_5 + x_4_5 + x_5_4 + x_5_6 + x_6_5 <= 4
 c97: x_5_6 + x_4_6 + x_5_5 + x_5_7 + x_6_6 <= 4
 c98: x_5_7 + x_4_7 + x_5_6 + x_5_8 + x_6_7 <= 4
 c99: x_5_8 + x_4_8 + x_5_7 + x_5_9 + x_6_8 <= 4
 c100: x_5_9 + x_4_9 + x_5_8 + x_5_10 + x_6_9 <= 4
 c101: x_5_10 + x_4_10 + x_5_9 + x_5_11 + x_6_10 <= 4
 c102: x_5_11 + x_4_11 + x_5_10 + x_5_12 + x_6_11 <= 4
 c103: x_5_12 + x_4_12 + x_5_11 + x_5_13 + x_6_12 <= 4
 c104: x_5_13 + x_4_13 + x_5_12 + x_5_14 + x_6_13 <= 4
 c105: x_5_14 + x_4_14 + x_5_13 + x_5_15 + x_6_14 <= 4
 c106: x_5_15 + x_4_15 + x_5_14 + x_5_16 + x_6_15 <= 4
 c107: x_5_16 + x_4_16 + x_5_15 + x_5_17 + x_6_16 <= 4
 c108: x_5_17 + x_4_17 + x_5_16 + x_6_17 <= 3
 c109: x_6_0 + x_5_0 + x_6_1 + x_7_0 <= 3
 c110: x_6_1 + x_5_1 + x_6_0 + x_6_2 + x_7_1 <= 4
 c111: x_6_2 + x_5_2 + x_6_1 + x_6_3 + x_7_2 <= 4
 c112: x_6_3 + x_5_3 + x_6_2 + x_6_4 + x_7_3 <= 4
 c113: x_6_4 + x_5_4 + x_6_3 + x_6_5 + x_7_4 <= 4
 c114: x_6_5 + x_5_5 + x_6_4 + x_6_6 + x_7_5 <= 4
 c115: x_6_6 + x_5_6 + x_6_5 + x_6_7 + x_7_6 <= 4
 c116: x_6_7 + x_5_7 + x_6_6 + x_6_8 + x_7_7 <= 4
 c117: x_6_8 + x_5_8 + x_6_7 + x_6_9 + x_7_8 <= 4
 c118: x_6_9 + x_5_9 + x_6_8 + x_6_10 + x_7_9 <= 4
 c119: x_6_10 + x_5_10 + x_6_9 + x_6_11 + x_7_10 <= 4
 c120: x_6_11 + x_5_11 + x_6_10 + x_6_12 + x_7_11 <= 4
 c121: x_6_12 + x_5_12 + x_6_11 + x_6_13 + x_7_12 <= 4
 c122: x_6_13 + x_5_13 + x_6_12 + x_6_14 + x_7_13 <= 4
 c123: x_6_14 + x_5_14 + x_6_13 + x_6_15 + x_7_14 <= 4
 c124: x_6_15 + x_5_15 + x_6_14 + x_6_16 + x_7_15 <= 4
 c125: x_6_16 + x_5_16 + x_6_15 + x_6_17 + x_7_16 <= 4
 c126: x_6_17 + x_5_17 + x_6_16 + x_7_17 <= 3
 c127: x_7_0 + x_6_0 + x_7_1 + x_8_0 <= 3
 c128: x_7_1 + x_6_1 + x_7_0 + x_7_2 + x_8_1 <= 4
 c129: x_7_2 + x_6_2 + x_7_1 + x_7_3 + x_8_2 <= 4
 c130: x_7_3 + x_6_3 + x_7_2 + x_7_4 + x_8_3 <= 4
 c131: x_7_4 + x_6_4 + x_7_3 + x_7_5 + x_8_4 <= 4
 c132: x_7_5 + x_6_5 + x_7_4 + x_7_6 + x_8_5 <= 4
 c133: x_7_6 + x_6_6 + x_7_5 + x_7_7 + x_8_6 <= 4
 c134: x_7_7 + x_6_7 + x_7_6 + x_7_8 + x_8_7 <= 4
 c135: x_7_8 + x_6_8 + x_7_7 + x_7_9 + x_8_8 <= 4
 c136: x_7_9 + x_6_9 + x_7_8 + x_7_10 + x_8_9 <= 4
 c137: x_7_10 + x_6_10 + x_7_9 + x_7_11 + x_8_10 <= 4
 c138: x_7_11 + x_6_11 + x_7_10 + x_7_12 + x_8_11 <= 4
 c139: x_7_12 + x_6_12 + x_7_11 + x_7_13 + x_8_12 <= 4
 c140: x_7_13 + x_6_13 + x_7_12 + x_7_14 + x_8_13 <= 4
 c141: x_7_14 + x_6_14 + x_7_13 + x_7_15 + x_8_14 <= 4
 c142: x_7_15 + x_6_15 + x_7_14 + x_7_16 + x_8_15 <= 4
 c143: x_7_16 + x_6_16 + x_7_15 + x_7_17 + x_8_16 <= 4
 c144: x_7_17 + x_6_17 + x_7_16 + x_8_17 <= 3
 c145: x_8_0 + x_7_0 + x_8_1 + x_9_0 <= 3
 c146: x_8_1 + x_7_1 + x_8_0 + x_8_2 + x_9_1 <= 4
 c147: x_8_2 + x_7_2 + x_8_1 + x_8_3 + x_9_2 <= 4
 c148: x_8_3 + x_7_3 + x_8_2 + x_8_4 + x_9_3 <= 4
 c149: x_8_4 + x_7_4 + x_8_3 + x_8_5 + x_9_4 <= 4
 c150: x_8_5 + x_7_5 + x_8_4 + x_8_6 + x_9_5 <= 4
 c151: x_8_6 + x_7_6 + x_8_5 + x_8_7 + x_9_6 <= 4
 c152: x_8_7 + x_7_7 + x_8_6 + x_8_8 + x_9_7 <= 4
 c153: x_8_8 + x_7_8 + x_8_7 + x_8_9 + x_9_8 <= 4
 c154: x_8_9 + x_7_9 + x_8_8 + x_8_10 + x_9_9 <= 4
 c155: x_8_10 + x_7_10 + x_8_9 + x_8_11 + x_9_10 <= 4
 c156: x_8_11 + x_7_11 + x_8_10 + x_8_12 + x_9_11 <= 4
 c157: x_8_12 + x_7_12 + x_8_11 + x_8_13 + x_9_12 <= 4
 c158: x_8_13 + x_7_13 + x_8_12 + x_8_14 + x_9_13 <= 4
 c159: x_8_14 + x_7_14 + x_8_13 + x_8_15 + x_9_14 <= 4
 c160: x_8_15 + x_7_15 + x_8_14 + x_8_16 + x_9_15 <= 4
 c161: x_8_16 + x_7_16 + x_8_15 + x_8_17 + x_9_16 <= 4
 c162: x_8_17 + x_7_17 + x_8_16 + x_9_17 <= 3
 c163: x_9_0 + x_8_0 + x_9_1 + x_10_0 <= 3
 c164: x_9_1 + x_8_1 + x_9_0 + x_9_2 + x_10_1 <= 4
 c165: x_9_2 + x_8_2 + x_9_1 + x_9_3 + x_10_2 <= 4
 c166: x_9_3 + x_8_3 + x_9_2 + x_9_4 + x_10_3 <= 4
 c167: x_9_4 + x_8_4 + x_9_3 + x_9_5 + x_10_4 <= 4
 c168: x_9_5 + x_8_5 + x_9_4 + x_9_6 + x_10_5 <= 4
 c169: x_9_6 + x_8_6 + x_9_5 + x_9_7 + x_10_6 <= 4
 c170: x_9_7 + x_8_7 + x_9_6 + x_9_8 + x_10_7 <= 4
 c171: x_9_8 + x_8_8 + x_9_7 + x_9_9 + x_10_8 <= 4
 c172: x_9_9 + x_8_9 + x_9_8 + x_9_10 + x_10_9 <= 4
 c173: x_9_10 + x_8_10 + x_9_9 + x_9_11 + x_10_10 <= 4
 c174: x_9_11 + x_8_11 + x_9_10 + x_9_12 + x_10_11 <= 4
 c175: x_9_12 + x_8_12 + x_9_11 + x_9_13 + x_10_12 <= 4
 c176: x_9_13 + x_8_13 + x_9_12 + x_9_14 + x_10_13 <= 4
 c177: x_9_14 + x_8_14 + x_9_13 + x_9_15 + x_10_14 <= 4
 c178: x_9_15 + x_8_15 + x_9_14 + x_9_16 + x_10_15 <= 4
 c179: x_9_16 + x_8_16 + x_9_15 + x_9_17 + x_10_16 <= 4
 c180: x_9_17 + x_8_17 + x_9_16 + x_10_17 <= 3
 c181: x_10_0 + x_9_0 + x_10_1 + x_11_0 <= 3
 c182: x_10_1 + x_9_1 + x_10_0 + x_10_2 + x_11_1 <= 4
 c183: x_10_2 + x_9_2 + x_10_1 + x_10_3 + x_11_2 <= 4
 c184: x_10_3 + x_9_3 + x_10_2 + x_10_4 + x_11_3 <= 4
 c185: x_10_4 + x_9_4 + x_10_3 + x_10_5 + x_11_4 <= 4
 c186: x_10_5 + x_9_5 + x_10_4 + x_10_6 + x_11_5 <= 4
 c187: x_10_6 + x_9_6 + x_10_5 + x_10_7 + x_11_6 <= 4
 c188: x_10_7 + x_9_7 + x_10_6 + x_10_8 + x_11_7 <= 4
 c189: x_10_8 + x_9_8 + x_10_7 + x_10_9 + x_11_8 <= 4
 c190: x_10_9 + x_9_9 + x_10_8 + x_10_10 + x_11_9 <= 4
 c191: x_10_10 + x_9_10 + x_10_9 + x_10_11 + x_11_10 <= 4
 c192: x_10_11 + x_9_11 + x_10_10 + x_10_12 + x_11_11 <= 4
 c193: x_10_12 + x_9_12 + x_10_11 + x_10_13 + x_11_12 <= 4
 c194: x_10_13 + x_9_13 + x_10_12 + x_10_14 + x_11_13 <= 4
 c195: x_10_14 + x_9_14 + x_10_13 + x_10_15 + x_11_14 <= 4
 c196: x_10_15 + x_9_15 + x_10_14 + x_10_16 + x_11_15 <= 4
 c197: x_10_16 + x_9_16 + x_10_15 + x_10_17 + x_11_16 <= 4
 c198: x_10_17 + x_9_17 + x_10_16 + x_11_17 <= 3
 c199: x_11_0 + x_10_0 + x_11_1 + x_12_0 <= 3
 c200: x_11_1 + x_10_1 + x_11_0 + x_11_2 + x_12_1 <= 4
 c201: x_11_2 + x_10_2 + x_11_1 + x_11_3 + x_12_2 <= 4
 c202: x_11_3 + x_10_3 + x_11_2 + x_11_4 + x_12_3 <= 4
 c203: x_11_4 + x_10_4 + x_11_3 + x_11_5 + x_12_4 <= 4
 c204: x_11_5 + x_10_5 + x_11_4 + x_11_6 + x_12_5 <= 4
 c205: x_11_6 + x_10_6 + x_11_5 + x_11_7 + x_12_6 <= 4
 c206: x_11_7 + x_10_7 + x_11_6 + x_11_8 + x_12_7 <= 4
 c207: x_11_8 + x_10_8 + x_11_7 + x_11_9 + x_12_8 <= 4
 c208: x_11_9 + x_10_9 + x_11_8 + x_11_10 + x_12_9 <= 4
 c209: x_11_10 + x_10_10 + x_11_9 + x_11_11 + x_12_10 <= 4
 c210: x_11_11 + x_10_11 + x_11_10 + x_11_12 + x_12_11 <= 4
 c211: x_11_12 + x_10_12 + x_11_11 + x_11_13 + x_12_12 <= 4
 c212: x_11_13 + x_10_13 + x_11_12 + x_11_14 + x_12_13 <= 4
 c213: x_11_14 + x_10_14 + x_11_13 + x_11_15 + x_12_14 <= 4
 c214: x_11_15 + x_10_15 + x_11_14 + x_11_16 + x_12_15 <= 4
 c215: x_11_16 + x_10_16 + x_11_15 + x_11_17 + x_12_16 <= 4
 c216: x_11_17 + x_10_17 + x_11_16 + x_12_17 <= 3
 c217: x_12_0 + x_11_0 + x_12_1 + x_13_0 <= 3
 c218: x_12_1 + x_11_1 + x_12_0 + x_12_2 + x_13_1 <= 4
 c219: x_12_2 + x_11_2 + x_12_1 + x_12_3 + x_13_2 <= 4
 c220: x_12_3 + x_11_3 + x_12_2 + x_12_4 + x_13_3 <= 4
 c221: x_12_4 + x_11_4 + x_12_3 + x_12_5 + x_13_4 <= 4
 c222: x_12_5 + x_11_5 + x_12_4 + x_12_6 + x_13_5 <= 4
 c223: x_12_6 + x_11_6 + x_12_5 + x_12_7 + x_13_6 <= 4
 c224: x_12_7 + x_11_7 + x_12_6 + x_12_8 + x_13_7 <= 4
 c225: x_12_8 + x_11_8 + x_12_7 + x_12_9 + x_13_8 <= 4
 c226: x_12_9 + x_11_9 + x_12_8 + x_12_10 + x_13_9 <= 4
 c227: x_12_10 + x_11_10 + x_12_9 + x_12_11 + x_13_10 <= 4
 c228: x_12_11 + x_11_11 + x_12_10 + x_12_12 + x_13_11 <= 4
 c229: x_12_12 + x_11_12 + x_12_11 + x_12_13 + x_13_12 <= 4
 c230: x_12_13 + x_11_13 + x_12_12 + x_12_14 + x_13_13 <= 4
 c231: x_12_14 + x_11_14 + x_12_13 + x_12_15 + x_13_14 <= 4
 c232: x_12_15 + x_11_15 + x_12_14 + x_12_16 + x_13_15 <= 4
 c233: x_12_16 + x_11_16 + x_12_15 + x_12_17 + x_13_16 <= 4
 c234: x_12_17 + x_11_17 + x_12_16 + x_13_17 <= 3
 c235: x_13_0 + x_12_0 + x_13_1 <= 2
 c236: x_13_1 + x_12_1 + x_13_0 + x_13_2 <= 3
 c237: x_13_2 + x_12_2 + x_13_1 + x_13_3 <= 3
 c238: x_13_3 + x_12_3 + x_13_2 + x_13_4 <= 3
 c239: x_13_4 + x_12_4 + x_13_3 + x_13_5 <= 3
 c240: x_13_5 + x_12_5 + x_13_4 + x_13_6 <= 3
 c241: x_13_6 + x_12_6 + x_13_5 + x_13_7 <= 3
 c242: x_13_7 + x_12_7 + x_13_6 + x_13_8 <= 3
 c243: x_13_8 + x_12_8 + x_13_7 + x_13_9 <= 3
 c244: x_13_9 + x_12_9 + x_13_8 + x_13_10 <= 3
 c245: x_13_10 + x_12_10 + x_13_9 + x_13_11 <= 3
 c246: x_13_11 + x_12_11 + x_13_10 + x_13_12 <= 3
 c247: x_13_12 + x_12_12 + x_13_11 + x_13_13 <= 3
 c248: x_13_13 + x_12_13 + x_13_12 + x_13_14 <= 3
 c249: x_13_14 + x_12_14 + x_13_13 + x_13_15 <= 3
 c250: x_13_15 + x_12_15 + x_13_14 + x_13_16 <= 3
 c251: x_13_16 + x_12_16 + x_13_15 + x_13_17 <= 3
 c252: x_13_17 + x_12_17 + x_13_16 <= 2

Bounds
0 <= x_0_0 <= 1
0 <= x_0_1 <= 1
0 <= x_0_2 <= 1
0 <= x_0_3 <= 1
0 <= x_0_4 <= 1
0 <= x_0_5 <= 1
0 <= x_0_6 <= 1
0 <= x_0_7 <= 1
0 <= x_0_8 <= 1
0 <= x_0_9 <= 1
0 <= x_0_10 <= 1
0 <= x_0_11 <= 1
0 <= x_0_12 <= 1
0 <= x_0_13 <= 1
0 <= x_0_14 <= 1
0 <= x_0_15 <= 1
0 <= x_0_16 <= 1
0 <= x_0_17 <= 1
0 <= x_1_0 <= 1
0 <= x_1_1 <= 1
0 <= x_1_2 <= 1
0 <= x_1_3 <= 1
0 <= x_1_4 <= 1
0 <= x_1_5 <= 1
0 <= x_1_6 <= 1
0 <= x_1_7 <= 1
0 <= x_1_8 <= 1
0 <= x_1_9 <= 1
0 <= x_1_10 <= 1
0 <= x_1_11 <= 1
0 <= x_1_12 <= 1
0 <= x_1_13 <= 1
0 <= x_1_14 <= 1
0 <= x_1_15 <= 1
0 <= x_1_16 <= 1
0 <= x_1_17 <= 1
0 <= x_2_0 <= 1
0 <= x_2_1 <= 1
0 <= x_2_2 <= 1
0 <= x_2_3 <= 1
0 <= x_2_4 <= 1
0 <= x_2_5 <= 1
0 <= x_2_6 <= 1
0 <= x_2_7 <= 1
0 <= x_2_8 <= 1
0 <= x_2_9 <= 1
0 <= x_2_10 <= 1
0 <= x_2_11 <= 1
0 <= x_2_12 <= 1
0 <= x_2_13 <= 1
0 <= x_2_14 <= 1
0 <= x_2_15 <= 1
0 <= x_2_16 <= 1
0 <= x_2_17 <= 1
0 <= x_3_0 <= 1
0 <= x_3_1 <= 1
0 <= x_3_2 <= 1
0 <= x_3_3 <= 1
0 <= x_3_4 <= 1
0 <= x_3_5 <= 1
0 <= x_3_6 <= 1
0 <= x_3_7 <= 1
0 <= x_3_8 <= 1
0 <= x_3_9 <= 1
0 <= x_3_10 <= 1
0 <= x_3_11 <= 1
0 <= x_3_12 <= 1
0 <= x_3_13 <= 1
0 <= x_3_14 <= 1
0 <= x_3_15 <= 1
0 <= x_3_16 <= 1
0 <= x_3_17 <= 1
0 <= x_4_0 <= 1
0 <= x_4_1 <= 1
0 <= x_4_2 <= 1
0 <= x_4_3 <= 1
0 <= x_4_4 <= 1
0 <= x_4_5 <= 1
0 <= x_4_6 <= 1
0 <= x_4_7 <= 1
0 <= x_4_8 <= 1
0 <= x_4_9 <= 1
0 <= x_4_10 <= 1
0 <= x_4_11 <= 1
0 <= x_4_12 <= 1
0 <= x_4_13 <= 1
0 <= x_4_14 <= 1
0 <= x_4_15 <= 1
0 <= x_4_16 <= 1
0 <= x_4_17 <= 1
0 <= x_5_0 <= 1
0 <= x_5_1 <= 1
0 <= x_5_2 <= 1
0 <= x_5_3 <= 1
0 <= x_5_4 <= 1
0 <= x_5_5 <= 1
0 <= x_5_6 <= 1
0 <= x_5_7 <= 1
0 <= x_5_8 <= 1
0 <= x_5_9 <= 1
0 <= x_5_10 <= 1
0 <= x_5_11 <= 1
0 <= x_5_12 <= 1
0 <= x_5_13 <= 1
0 <= x_5_14 <= 1
0 <= x_5_15 <= 1
0 <= x_5_16 <= 1
0 <= x_5_17 <= 1
0 <= x_6_0 <= 1
0 <= x_6_1 <= 1
0 <= x_6_2 <= 1
0 <= x_6_3 <= 1
0 <= x_6_4 <= 1
0 <= x_6_5 <= 1
0 <= x_6_6 <= 1
0 <= x_6_7 <= 1
0 <= x_6_8 <= 1
0 <= x_6_9 <= 1
0 <= x_6_10 <= 1
0 <= x_6_11 <= 1
0 <= x_6_12 <= 1
0 <= x_6_13 <= 1
0 <= x_6_14 <= 1
0 <= x_6_15 <= 1
0 <= x_6_16 <= 1
0 <= x_6_17 <= 1
0 <= x_7_0 <= 1
0 <= x_7_1 <= 1
0 <= x_7_2 <= 1
0 <= x_7_3 <= 1
0 <= x_7_4 <= 1
0 <= x_7_5 <= 1
0 <= x_7_6 <= 1
0 <= x_7_7 <= 1
0 <= x_7_8 <= 1
0 <= x_7_9 <= 1
0 <= x_7_10 <= 1
0 <= x_7_11 <= 1
0 <= x_7_12 <= 1
0 <= x_7_13 <= 1
0 <= x_7_14 <= 1
0 <= x_7_15 <= 1
0 <= x_7_16 <= 1
0 <= x_7_17 <= 1
0 <= x_8_0 <= 1
0 <= x_8_1 <= 1
0 <= x_8_2 <= 1
0 <= x_8_3 <= 1
0 <= x_8_4 <= 1
0 <= x_8_5 <= 1
0 <= x_8_6 <= 1
0 <= x_8_7 <= 1
0 <= x_8_8 <= 1
0 <= x_8_9 <= 1
0 <= x_8_10 <= 1
0 <= x_8_11 <= 1
0 <= x_8_12 <= 1
0 <= x_8_13 <= 1
0 <= x_8_14 <= 1
0 <= x_8_15 <= 1
0 <= x_8_16 <= 1
0 <= x_8_17 <= 1
0 <= x_9_0 <= 1
0 <= x_9_1 <= 1
0 <= x_9_2 <= 1
0 <= x_9_3 <= 1
0 <= x_9_4 <= 1
0 <= x_9_5 <= 1
0 <= x_9_6 <= 1
0 <= x_9_7 <= 1
0 <= x_9_8 <= 1
0 <= x_9_9 <= 1
0 <= x_9_10 <= 1
0 <= x_9_11 <= 1
0 <= x_9_12 <= 1
0 <= x_9_13 <= 1
0 <= x_9_14 <= 1
0 <= x_9_15 <= 1
0 <= x_9_16 <= 1
0 <= x_9_17 <= 1
0 <= x_10_0 <= 1
0 <= x_10_1 <= 1
0 <= x_10_2 <= 1
0 <= x_10_3 <= 1
0 <= x_10_4 <= 1
0 <= x_10_5 <= 1
0 <= x_10_6 <= 1
0 <= x_10_7 <= 1
0 <= x_10_8 <= 1
0 <= x_10_9 <= 1
0 <= x_10_10 <= 1
0 <= x_10_11 <= 1
0 <= x_10_12 <= 1
0 <= x_10_13 <= 1
0 <= x_10_14 <= 1
0 <= x_10_15 <= 1
0 <= x_10_16 <= 1
0 <= x_10_17 <= 1
0 <= x_11_0 <= 1
0 <= x_11_1 <= 1
0 <= x_11_2 <= 1
0 <= x_11_3 <= 1
0 <= x_11_4 <= 1
0 <= x_11_5 <= 1
0 <= x_11_6 <= 1
0 <= x_11_7 <= 1
0 <= x_11_8 <= 1
0 <= x_11_9 <= 1
0 <= x_11_10 <= 1
0 <= x_11_11 <= 1
0 <= x_11_12 <= 1
0 <= x_11_13 <= 1
0 <= x_11_14 <= 1
0 <= x_11_15 <= 1
0 <= x_11_16 <= 1
0 <= x_11_17 <= 1
0 <= x_12_0 <= 1
0 <= x_12_1 <= 1
0 <= x_12_2 <= 1
0 <= x_12_3 <= 1
0 <= x_12_4 <= 1
0 <= x_12_5 <= 1
0 <= x_12_6 <= 1
0 <= x_12_7 <= 1
0 <= x_12_8 <= 1
0 <= x_12_9 <= 1
0 <= x_12_10 <= 1
0 <= x_12_11 <= 1
0 <= x_12_12 <= 1
0 <= x_12_13 <= 1
0 <= x_12_14 <= 1
0 <= x_12_15 <= 1
0 <= x_12_16 <= 1
0 <= x_12_17 <= 1
0 <= x_13_0 <= 1
0 <= x_13_1 <= 1
0 <= x_13_2 <= 1
0 <= x_13_3 <= 1
0 <= x_13_4 <= 1
0 <= x_13_5 <= 1
0 <= x_13_6 <= 1
0 <= x_13_7 <= 1
0 <= x_13_8 <= 1
0 <= x_13_9 <= 1
0 <= x_13_10 <= 1
0 <= x_13_11 <= 1
0 <= x_13_12 <= 1
0 <= x_13_13 <= 1
0 <= x_13_14 <= 1
0 <= x_13_15 <= 1
0 <= x_13_16 <= 1
0 <= x_13_17 <= 1

Binaries
 x_0_0 x_0_1 x_0_2 x_0_3 x_0_4 x_0_5 x_0_6 x_0_7 x_0_8 x_0_9 x_0_10 x_0_11
 x_0_12 x_0_13 x_0_14 x_0_15 x_0_16 x_0_17 x_1_0 x_1_1 x_1_2 x_1_3 x_1_4 x_1_5
 x_1_6 x_1_7 x_1_8 x_1_9 x_1_10 x_1_11 x_1_12 x_1_13 x_1_14 x_1_15 x_1_16 x_1_17
 x_2_0 x_2_1 x_2_2 x_2_3 x_2_4 x_2_5 x_2_6 x_2_7 x_2_8 x_2_9 x_2_10 x_2_11
 x_2_12 x_2_13 x_2_14 x_2_15 x_2_16 x_2_17 x_3_0 x_3_1 x_3_2 x_3_3 x_3_4 x_3_5
 x_3_6 x_3_7 x_3_8 x_3_9 x_3_10 x_3_11 x_3_12 x_3_13 x_3_14 x_3_15 x_3_16 x_3_17
 x_4_0 x_4_1 x_4_2 x_4_3 x_4_4 x_4_5 x_4_6 x_4_7 x_4_8 x_4_9 x_4_10 x_4_11
 x_4_12 x_4_13 x_4_14 x_4_15 x_4_16 x_4_17 x_5_0 x_5_1 x_5_2 x_5_3 x_5_4 x_5_5
 x_5_6 x_5_7 x_5_8 x_5_9 x_5_10 x_5_11 x_5_12 x_5_13 x_5_14 x_5_15 x_5_16 x_5_17
 x_6_0 x_6_1 x_6_2 x_6_3 x_6_4 x_6_5 x_6_6 x_6_7 x_6_8 x_6_9 x_6_10 x_6_11
 x_6_12 x_6_13 x_6_14 x_6_15 x_6_16 x_6_17 x_7_0 x_7_1 x_7_2 x_7_3 x_7_4 x_7_5
 x_7_6 x_7_7 x_7_8 x_7_9 x_7_10 x_7_11 x_7_12 x_7_13 x_7_14 x_7_15 x_7_16 x_7_17
 x_8_0 x_8_1 x_8_2 x_8_3 x_8_4 x_8_5 x_8_6 x_8_7 x_8_8 x_8_9 x_8_10 x_8_11
 x_8_12 x_8_13 x_8_14 x_8_15 x_8_16 x_8_17 x_9_0 x_9_1 x_9_2 x_9_3 x_9_4 x_9_5
 x_9_6 x_9_7 x_9_8 x_9_9 x_9_10 x_9_11 x_9_12 x_9_13 x_9_14 x_9_15 x_9_16 x_9_17
 x_10_0 x_10_1 x_10_2 x_10_3 x_10_4 x_10_5 x_10_6 x_10_7 x_10_8 x_10_9 x_10_10
 x_10_11 x_10_12 x_10_13 x_10_14 x_10_15 x_10_16 x_10_17 x_11_0 x_11_1 x_11_2
 x_11_3 x_11_4 x_11_5 x_11_6 x_11_7 x_11_8 x_11_9 x_11_10 x_11_11 x_11_12
 x_11_13 x_11_14 x_11_15 x_11_16 x_11_17 x_12_0 x_12_1 x_12_2 x_12_3 x_12_4
 x_12_5 x_12_6 x_12_7 x_12_8 x_12_9 x_12_10 x_12_11 x_12_12 x_12_13 x_12_14
 x_12_15 x_12_16 x_12_17 x_13_0 x_13_1 x_13_2 x_13_3 x_13_4 x_13_5 x_13_6 x_13_7
 x_13_8 x_13_9 x_13_10 x_13_11 x_13_12 x_13_13 x_13_14 x_13_15 x_13_16 x_13_17
End
